src/SCC_Solver-pulp.lp
\* SCC_Solver *\
Maximize
Objective_Function: 616 x_0_0 + 308 x_0_2 + 154 x_0_4 + 276 x_10_1
 + 138 x_10_2 + 552 x_10_4 + 262 x_11_0 + 524 x_11_2 + 131 x_11_4 + 420 x_12_0
 + 105 x_12_2 + 210 x_12_4 + 100 x_13_1 + 200 x_13_3 + 400 x_13_4 + 99 x_14_1
 + 198 x_14_3 + 396 x_14_4 + 196 x_15_1 + 392 x_15_3 + 98 x_15_4 + 384 x_16_1
 + 96 x_16_2 + 192 x_16_4 + 96 x_17_0 + 192 x_17_1 + 384 x_17_4 + 384 x_18_0
 + 192 x_18_2 + 96 x_18_3 + 96 x_19_1 + 192 x_19_2 + 384 x_19_3 + 304 x_1_1
 + 152 x_1_3 + 608 x_1_4 + 380 x_20_2 + 190 x_20_3 + 95 x_20_4 + 95 x_21_0
 + 190 x_21_3 + 380 x_21_4 + 94 x_22_0 + 188 x_22_3 + 376 x_22_4 + 186 x_23_1
 + 372 x_23_2 + 93 x_23_4 + 92 x_24_2 + 184 x_24_3 + 368 x_24_4 + 182 x_25_0
 + 364 x_25_4 + 182 x_26_1 + 364 x_26_2 + 91 x_26_3 + 182 x_27_1 + 91 x_27_2
 + 364 x_27_4 + 91 x_28_0 + 364 x_28_2 + 182 x_28_4 + 356 x_29_0 + 89 x_29_3
 + 178 x_29_4 + 600 x_2_0 + 150 x_2_2 + 300 x_2_4 + 356 x_30_2 + 89 x_30_3
 + 178 x_30_4 + 87 x_31_1 + 348 x_31_2 + 174 x_31_4 + 588 x_3_4 + 144 x_4_0
 + 576 x_4_2 + 288 x_4_4 + 144 x_5_0 + 288 x_5_1 + 576 x_5_4 + 288 x_6_1
 + 144 x_6_2 + 576 x_6_4 + 143 x_7_0 + 286 x_7_2 + 572 x_7_4 + 143 x_8_0
 + 286 x_8_3 + 572 x_8_4 + 140 x_9_0 + 560 x_9_1 + 280 x_9_3
Subject To
MaxStudents_0: x_0_0 + x_10_0 + x_11_0 + x_12_0 + x_13_0 + x_14_0 + x_15_0
 + x_16_0 + x_17_0 + x_18_0 + x_19_0 + x_1_0 + x_20_0 + x_21_0 + x_22_0
 + x_23_0 + x_24_0 + x_25_0 + x_26_0 + x_27_0 + x_28_0 + x_29_0 + x_2_0
 + x_30_0 + x_31_0 + x_3_0 + x_4_0 + x_5_0 + x_6_0 + x_7_0 + x_8_0 + x_9_0 = 6
MaxStudents_1: x_0_1 + x_10_1 + x_11_1 + x_12_1 + x_13_1 + x_14_1 + x_15_1
 + x_16_1 + x_17_1 + x_18_1 + x_19_1 + x_1_1 + x_20_1 + x_21_1 + x_22_1
 + x_23_1 + x_24_1 + x_25_1 + x_26_1 + x_27_1 + x_28_1 + x_29_1 + x_2_1
 + x_30_1 + x_31_1 + x_3_1 + x_4_1 + x_5_1 + x_6_1 + x_7_1 + x_8_1 + x_9_1 = 6
MaxStudents_2: x_0_2 + x_10_2 + x_11_2 + x_12_2 + x_13_2 + x_14_2 + x_15_2
 + x_16_2 + x_17_2 + x_18_2 + x_19_2 + x_1_2 + x_20_2 + x_21_2 + x_22_2
 + x_23_2 + x_24_2 + x_25_2 + x_26_2 + x_27_2 + x_28_2 + x_29_2 + x_2_2
 + x_30_2 + x_31_2 + x_3_2 + x_4_2 + x_5_2 + x_6_2 + x_7_2 + x_8_2 + x_9_2 = 6
MaxStudents_3: x_0_3 + x_10_3 + x_11_3 + x_12_3 + x_13_3 + x_14_3 + x_15_3
 + x_16_3 + x_17_3 + x_18_3 + x_19_3 + x_1_3 + x_20_3 + x_21_3 + x_22_3
 + x_23_3 + x_24_3 + x_25_3 + x_26_3 + x_27_3 + x_28_3 + x_29_3 + x_2_3
 + x_30_3 + x_31_3 + x_3_3 + x_4_3 + x_5_3 + x_6_3 + x_7_3 + x_8_3 + x_9_3 = 6
MaxStudents_4: x_0_4 + x_10_4 + x_11_4 + x_12_4 + x_13_4 + x_14_4 + x_15_4
 + x_16_4 + x_17_4 + x_18_4 + x_19_4 + x_1_4 + x_20_4 + x_21_4 + x_22_4
 + x_23_4 + x_24_4 + x_25_4 + x_26_4 + x_27_4 + x_28_4 + x_29_4 + x_2_4
 + x_30_4 + x_31_4 + x_3_4 + x_4_4 + x_5_4 + x_6_4 + x_7_4 + x_8_4 + x_9_4 = 6
OneSlot_0: x_0_0 + x_0_1 + x_0_2 + x_0_3 + x_0_4 <= 1
OneSlot_1: x_1_0 + x_1_1 + x_1_2 + x_1_3 + x_1_4 <= 1
OneSlot_10: x_10_0 + x_10_1 + x_10_2 + x_10_3 + x_10_4 <= 1
OneSlot_11: x_11_0 + x_11_1 + x_11_2 + x_11_3 + x_11_4 <= 1
OneSlot_12: x_12_0 + x_12_1 + x_12_2 + x_12_3 + x_12_4 <= 1
OneSlot_13: x_13_0 + x_13_1 + x_13_2 + x_13_3 + x_13_4 <= 1
OneSlot_14: x_14_0 + x_14_1 + x_14_2 + x_14_3 + x_14_4 <= 1
OneSlot_15: x_15_0 + x_15_1 + x_15_2 + x_15_3 + x_15_4 <= 1
OneSlot_16: x_16_0 + x_16_1 + x_16_2 + x_16_3 + x_16_4 <= 1
OneSlot_17: x_17_0 + x_17_1 + x_17_2 + x_17_3 + x_17_4 <= 1
OneSlot_18: x_18_0 + x_18_1 + x_18_2 + x_18_3 + x_18_4 <= 1
OneSlot_19: x_19_0 + x_19_1 + x_19_2 + x_19_3 + x_19_4 <= 1
OneSlot_2: x_2_0 + x_2_1 + x_2_2 + x_2_3 + x_2_4 <= 1
OneSlot_20: x_20_0 + x_20_1 + x_20_2 + x_20_3 + x_20_4 <= 1
OneSlot_21: x_21_0 + x_21_1 + x_21_2 + x_21_3 + x_21_4 <= 1
OneSlot_22: x_22_0 + x_22_1 + x_22_2 + x_22_3 + x_22_4 <= 1
OneSlot_23: x_23_0 + x_23_1 + x_23_2 + x_23_3 + x_23_4 <= 1
OneSlot_24: x_24_0 + x_24_1 + x_24_2 + x_24_3 + x_24_4 <= 1
OneSlot_25: x_25_0 + x_25_1 + x_25_2 + x_25_3 + x_25_4 <= 1
OneSlot_26: x_26_0 + x_26_1 + x_26_2 + x_26_3 + x_26_4 <= 1
OneSlot_27: x_27_0 + x_27_1 + x_27_2 + x_27_3 + x_27_4 <= 1
OneSlot_28: x_28_0 + x_28_1 + x_28_2 + x_28_3 + x_28_4 <= 1
OneSlot_29: x_29_0 + x_29_1 + x_29_2 + x_29_3 + x_29_4 <= 1
OneSlot_3: x_3_0 + x_3_1 + x_3_2 + x_3_3 + x_3_4 <= 1
OneSlot_30: x_30_0 + x_30_1 + x_30_2 + x_30_3 + x_30_4 <= 1
OneSlot_31: x_31_0 + x_31_1 + x_31_2 + x_31_3 + x_31_4 <= 1
OneSlot_4: x_4_0 + x_4_1 + x_4_2 + x_4_3 + x_4_4 <= 1
OneSlot_5: x_5_0 + x_5_1 + x_5_2 + x_5_3 + x_5_4 <= 1
OneSlot_6: x_6_0 + x_6_1 + x_6_2 + x_6_3 + x_6_4 <= 1
OneSlot_7: x_7_0 + x_7_1 + x_7_2 + x_7_3 + x_7_4 <= 1
OneSlot_8: x_8_0 + x_8_1 + x_8_2 + x_8_3 + x_8_4 <= 1
OneSlot_9: x_9_0 + x_9_1 + x_9_2 + x_9_3 + x_9_4 <= 1
Binaries
x_0_0
x_0_1
x_0_2
x_0_3
x_0_4
x_10_0
x_10_1
x_10_2
x_10_3
x_10_4
x_11_0
x_11_1
x_11_2
x_11_3
x_11_4
x_12_0
x_12_1
x_12_2
x_12_3
x_12_4
x_13_0
x_13_1
x_13_2
x_13_3
x_13_4
x_14_0
x_14_1
x_14_2
x_14_3
x_14_4
x_15_0
x_15_1
x_15_2
x_15_3
x_15_4
x_16_0
x_16_1
x_16_2
x_16_3
x_16_4
x_17_0
x_17_1
x_17_2
x_17_3
x_17_4
x_18_0
x_18_1
x_18_2
x_18_3
x_18_4
x_19_0
x_19_1
x_19_2
x_19_3
x_19_4
x_1_0
x_1_1
x_1_2
x_1_3
x_1_4
x_20_0
x_20_1
x_20_2
x_20_3
x_20_4
x_21_0
x_21_1
x_21_2
x_21_3
x_21_4
x_22_0
x_22_1
x_22_2
x_22_3
x_22_4
x_23_0
x_23_1
x_23_2
x_23_3
x_23_4
x_24_0
x_24_1
x_24_2
x_24_3
x_24_4
x_25_0
x_25_1
x_25_2
x_25_3
x_25_4
x_26_0
x_26_1
x_26_2
x_26_3
x_26_4
x_27_0
x_27_1
x_27_2
x_27_3
x_27_4
x_28_0
x_28_1
x_28_2
x_28_3
x_28_4
x_29_0
x_29_1
x_29_2
x_29_3
x_29_4
x_2_0
x_2_1
x_2_2
x_2_3
x_2_4
x_30_0
x_30_1
x_30_2
x_30_3
x_30_4
x_31_0
x_31_1
x_31_2
x_31_3
x_31_4
x_3_0
x_3_1
x_3_2
x_3_3
x_3_4
x_4_0
x_4_1
x_4_2
x_4_3
x_4_4
x_5_0
x_5_1
x_5_2
x_5_3
x_5_4
x_6_0
x_6_1
x_6_2
x_6_3
x_6_4
x_7_0
x_7_1
x_7_2
x_7_3
x_7_4
x_8_0
x_8_1
x_8_2
x_8_3
x_8_4
x_9_0
x_9_1
x_9_2
x_9_3
x_9_4
End
