src/SCC_Solver-pulp.sol
Problem:    
Rows:       37
Columns:    160 (160 integer, 160 binary)
Non-zeros:  320
Status:     INTEGER OPTIMAL
Objective:  Objective_Function = 11950 (MAXimum)

   No.   Row name        Activity     Lower bound   Upper bound
------ ------------    ------------- ------------- -------------
     1 MaxStudents_0
                                   6             6             = 
     2 MaxStudents_1
                                   6             6             = 
     3 MaxStudents_2
                                   6             6             = 
     4 MaxStudents_3
                                   6             6             = 
     5 MaxStudents_4
                                   6             6             = 
     6 OneSlot_0                   1                           1 
     7 OneSlot_1                   1                           1 
     8 OneSlot_10                  1                           1 
     9 OneSlot_11                  1                           1 
    10 OneSlot_12                  1                           1 
    11 OneSlot_13                  1                           1 
    12 OneSlot_14                  1                           1 
    13 OneSlot_15                  1                           1 
    14 OneSlot_16                  1                           1 
    15 OneSlot_17                  1                           1 
    16 OneSlot_18                  1                           1 
    17 OneSlot_19                  1                           1 
    18 OneSlot_2                   1                           1 
    19 OneSlot_20                  1                           1 
    20 OneSlot_21                  1                           1 
    21 OneSlot_22                  1                           1 
    22 OneSlot_23                  1                           1 
    23 OneSlot_24                  0                           1 
    24 OneSlot_25                  1                           1 
    25 OneSlot_26                  1                           1 
    26 OneSlot_27                  1                           1 
    27 OneSlot_28                  1                           1 
    28 OneSlot_29                  1                           1 
    29 OneSlot_3                   1                           1 
    30 OneSlot_30                  1                           1 
    31 OneSlot_31                  0                           1 
    32 OneSlot_4                   1                           1 
    33 OneSlot_5                   1                           1 
    34 OneSlot_6                   1                           1 
    35 OneSlot_7                   1                           1 
    36 OneSlot_8                   1                           1 
    37 OneSlot_9                   1                           1 

   No. Column name       Activity     Lower bound   Upper bound
------ ------------    ------------- ------------- -------------
     1 x_0_0        *              1             0             1 
     2 x_0_2        *              0             0             1 
     3 x_0_4        *              0             0             1 
     4 x_10_1       *              1             0             1 
     5 x_10_2       *              0             0             1 
     6 x_10_4       *              0             0             1 
     7 x_11_0       *              0             0             1 
     8 x_11_2       *              1             0             1 
     9 x_11_4       *              0             0             1 
    10 x_12_0       *              1             0             1 
    11 x_12_2       *              0             0             1 
    12 x_12_4       *              0             0             1 
    13 x_13_1       *              0             0             1 
    14 x_13_3       *              1             0             1 
    15 x_13_4       *              0             0             1 
    16 x_14_1       *              0             0             1 
    17 x_14_3       *              1             0             1 
    18 x_14_4       *              0             0             1 
    19 x_15_1       *              0             0             1 
    20 x_15_3       *              1             0             1 
    21 x_15_4       *              0             0             1 
    22 x_16_1       *              1             0             1 
    23 x_16_2       *              0             0             1 
    24 x_16_4       *              0             0             1 
    25 x_17_0       *              0             0             1 
    26 x_17_1       *              1             0             1 
    27 x_17_4       *              0             0             1 
    28 x_18_0       *              1             0             1 
    29 x_18_2       *              0             0             1 
    30 x_18_3       *              0             0             1 
    31 x_19_1       *              0             0             1 
    32 x_19_2       *              0             0             1 
    33 x_19_3       *              1             0             1 
    34 x_1_1        *              0             0             1 
    35 x_1_3        *              0             0             1 
    36 x_1_4        *              1             0             1 
    37 x_20_2       *              1             0             1 
    38 x_20_3       *              0             0             1 
    39 x_20_4       *              0             0             1 
    40 x_21_0       *              0             0             1 
    41 x_21_3       *              1             0             1 
    42 x_21_4       *              0             0             1 
    43 x_22_0       *              0             0             1 
    44 x_22_3       *              1             0             1 
    45 x_22_4       *              0             0             1 
    46 x_23_1       *              0             0             1 
    47 x_23_2       *              1             0             1 
    48 x_23_4       *              0             0             1 
    49 x_24_2       *              0             0             1 
    50 x_24_3       *              0             0             1 
    51 x_24_4       *              0             0             1 
    52 x_25_0       *              1             0             1 
    53 x_25_4       *              0             0             1 
    54 x_26_1       *              1             0             1 
    55 x_26_2       *              0             0             1 
    56 x_26_3       *              0             0             1 
    57 x_27_1       *              1             0             1 
    58 x_27_2       *              0             0             1 
    59 x_27_4       *              0             0             1 
    60 x_28_0       *              0             0             1 
    61 x_28_2       *              1             0             1 
    62 x_28_4       *              0             0             1 
    63 x_29_0       *              1             0             1 
    64 x_29_3       *              0             0             1 
    65 x_29_4       *              0             0             1 
    66 x_2_0        *              1             0             1 
    67 x_2_2        *              0             0             1 
    68 x_2_4        *              0             0             1 
    69 x_30_2       *              1             0             1 
    70 x_30_3       *              0             0             1 
    71 x_30_4       *              0             0             1 
    72 x_31_1       *              0             0             1 
    73 x_31_2       *              0             0             1 
    74 x_31_4       *              0             0             1 
    75 x_3_4        *              1             0             1 
    76 x_4_0        *              0             0             1 
    77 x_4_2        *              1             0             1 
    78 x_4_4        *              0             0             1 
    79 x_5_0        *              0             0             1 
    80 x_5_1        *              0             0             1 
    81 x_5_4        *              1             0             1 
    82 x_6_1        *              0             0             1 
    83 x_6_2        *              0             0             1 
    84 x_6_4        *              1             0             1 
    85 x_7_0        *              0             0             1 
    86 x_7_2        *              0             0             1 
    87 x_7_4        *              1             0             1 
    88 x_8_0        *              0             0             1 
    89 x_8_3        *              0             0             1 
    90 x_8_4        *              1             0             1 
    91 x_9_0        *              0             0             1 
    92 x_9_1        *              1             0             1 
    93 x_9_3        *              0             0             1 
    94 x_10_0       *              0             0             1 
    95 x_13_0       *              0             0             1 
    96 x_14_0       *              0             0             1 
    97 x_15_0       *              0             0             1 
    98 x_16_0       *              0             0             1 
    99 x_19_0       *              0             0             1 
   100 x_1_0        *              0             0             1 
   101 x_20_0       *              0             0             1 
   102 x_23_0       *              0             0             1 
   103 x_24_0       *              0             0             1 
   104 x_26_0       *              0             0             1 
   105 x_27_0       *              0             0             1 
   106 x_30_0       *              0             0             1 
   107 x_31_0       *              0             0             1 
   108 x_3_0        *              0             0             1 
   109 x_6_0        *              0             0             1 
   110 x_0_1        *              0             0             1 
   111 x_11_1       *              0             0             1 
   112 x_12_1       *              0             0             1 
   113 x_18_1       *              0             0             1 
   114 x_20_1       *              0             0             1 
   115 x_21_1       *              0             0             1 
   116 x_22_1       *              0             0             1 
   117 x_24_1       *              0             0             1 
   118 x_25_1       *              0             0             1 
   119 x_28_1       *              0             0             1 
   120 x_29_1       *              0             0             1 
   121 x_2_1        *              0             0             1 
   122 x_30_1       *              0             0             1 
   123 x_3_1        *              0             0             1 
   124 x_4_1        *              0             0             1 
   125 x_7_1        *              0             0             1 
   126 x_8_1        *              0             0             1 
   127 x_13_2       *              0             0             1 
   128 x_14_2       *              0             0             1 
   129 x_15_2       *              0             0             1 
   130 x_17_2       *              0             0             1 
   131 x_1_2        *              0             0             1 
   132 x_21_2       *              0             0             1 
   133 x_22_2       *              0             0             1 
   134 x_25_2       *              0             0             1 
   135 x_29_2       *              0             0             1 
   136 x_3_2        *              0             0             1 
   137 x_5_2        *              0             0             1 
   138 x_8_2        *              0             0             1 
   139 x_9_2        *              0             0             1 
   140 x_0_3        *              0             0             1 
   141 x_10_3       *              0             0             1 
   142 x_11_3       *              0             0             1 
   143 x_12_3       *              0             0             1 
   144 x_16_3       *              0             0             1 
   145 x_17_3       *              0             0             1 
   146 x_23_3       *              0             0             1 
   147 x_25_3       *              0             0             1 
   148 x_27_3       *              0             0             1 
   149 x_28_3       *              0             0             1 
   150 x_2_3        *              0             0             1 
   151 x_31_3       *              0             0             1 
   152 x_3_3        *              0             0             1 
   153 x_4_3        *              0             0             1 
   154 x_5_3        *              0             0             1 
   155 x_6_3        *              0             0             1 
   156 x_7_3        *              0             0             1 
   157 x_18_4       *              0             0             1 
   158 x_19_4       *              0             0             1 
   159 x_26_4       *              0             0             1 
   160 x_9_4        *              0             0             1 

Integer feasibility conditions:

KKT.PE: max.abs.err = 0.00e+00 on row 0
        max.rel.err = 0.00e+00 on row 0
        High quality

KKT.PB: max.abs.err = 0.00e+00 on row 0
        max.rel.err = 0.00e+00 on row 0
        High quality

End of output
